
50
2476326

329 100016
984 100006
960 100024
919 100037
790 100094
876 100055
1 100063
627 100035
248 100017
731 100056
433 100073
561 100008
543 100065
577 100021
828 100069
982 100035
346 100014
807 100014
890 100080
393 100054
124 100008
498 100091
765 100027
525 100028
185 100000
706 100030
325 100056
887 100090
169 100030
594 100050
386 100008
985 100069
139 100030
881 100037
418 100027
372 100082
209 100099
495 100013
930 100045
1000 100010
940 100075
612 100091
237 100012
508 100068
650 100030
296 100045
987 100057
85 100038
235 100065
204 100033
